Base=4;
C=75;
start_setup=[|0,0,0,0,0,13,0,4,0,0,0,0,0,0,0,16
             |0,0,0,0,0,0,0,0,0,0,0,0,0,0,0,11
             |0,4,0,0,0,0,0,0,0,0,0,0,0,0,0,0
             |0,0,0,0,2,0,0,0,0,0,3,0,0,0,0,0
             |0,0,0,4,0,0,0,0,0,0,0,0,11,5,15,0
             |0,0,0,0,0,0,0,0,0,0,0,0,0,0,0,0
             |0,0,0,0,0,0,9,0,0,0,0,11,0,0,7,0
             |15,0,0,0,0,0,0,0,0,0,0,0,0,0,1,0
             |0,2,0,0,9,0,0,0,13,0,0,0,0,0,0,0
             |0,0,0,0,0,0,0,0,0,2,11,0,0,0,0,7
             |0,0,0,0,0,0,0,0,0,1,0,0,14,0,11,0
             |0,0,0,0,0,0,0,0,5,0,9,0,0,0,0,0
             |4,0,0,0,0,7,0,0,0,0,0,9,16,0,0,0
             |0,0,0,0,0,0,0,0,4,0,2,0,12,11,0,0
             |0,11,10,0,0,3,0,1,0,15,0,0,0,0,0,0
             |0,0,0,0,0,0,0,9,0,7,0,5,4,3,0,0
|];
target_sum=[18,19,73,11,22,9,47,103,9,1,14,36,20,18,14,30,5,23,68,47,24,13,8,23,16,51,15,22,14,11,45,33,52,82,50,30,25,13,87,37,14,7,15,29,17,60,10,45,11,35,55,21,46,21,74,11,9,64,28,3,47,3,30,62,71,3,2,10,36,26,10,8,22,19,14];
tile2cage=[
11,11,58,3,3,12,12,35,35,35,32,32,24,24,55,55
,11,58,58,3,3,27,12,35,35,32,32,57,17,24,55,55
,56,58,58,3,3,27,16,16,61,61,61,57,53,55,55,55
,56,58,73,3,3,29,2,16,61,54,66,53,53,1,1,1
,58,58,73,3,19,67,2,16,61,54,53,53,25,25,34,34
,74,74,19,19,19,19,4,4,51,37,37,43,50,9,34,34
,33,33,19,19,68,59,6,62,51,51,51,43,50,50,34,34
,33,33,33,19,5,59,59,51,51,21,51,23,23,50,34,34
,75,63,10,30,5,8,8,69,69,21,47,47,46,46,46,34
,28,63,63,42,42,8,8,69,70,21,49,46,46,46,13,13
,28,63,63,52,52,8,8,8,70,21,7,7,48,48,48,36
,28,22,40,45,52,8,8,8,70,71,7,7,48,48,48,36
,40,40,40,45,72,8,8,31,31,44,7,65,65,65,20,36
,26,40,40,64,39,39,39,39,31,44,60,60,65,65,20,20
,26,64,64,64,39,39,39,39,31,44,15,38,65,41,20,20
,26,26,64,64,18,18,39,39,31,14,14,14,41,41,20,20];
